\ This file has been generated by DOcplex
\ ENCODING=ISO-8859-1
\Problem name: Manuver Model

Minimize
 obj: PriceProv1 + PriceProv2 + PriceProv3 + PriceProv4 + PriceProv5
Subject To
 a_c_fix_component: C1_VM1 = 1
 a_c_fix_component#1: C4_VM1 = 0
 a_c_fix_component#2: C5_VM1 = 0
 a_c_fix_component#3: C1_VM2 = 0
 a_c_fix_component#4: C4_VM2 = 0
 a_c_fix_component#5: C5_VM2 = 1
 a_c_fix_component#6: C1_VM3 = 0
 a_c_fix_component#7: C4_VM3 = 1
 a_c_fix_component#8: C5_VM3 = 0
 c10: C1_VM4 - C1_VM5 >= 0
 c11: x59 - _bool#1 = 0
 c12: _and60 - lex_VM3_comp1 <= 0
 c13: _and60 - _bool#1 <= 0
 c14: _and60 - lex_VM3_comp1 - _bool#1 >= -1
 c15: x63 - _bool#2 = 0
 c16: _and64 - lex_VM3_comp2 <= 0
 c17: _and64 - _bool#2 <= 0
 c18: _and64 - lex_VM3_comp2 - _bool#2 >= -1
 c19: x67 - _bool#3 = 0
 c20: _and68 - lex_VM3_comp3 <= 0
 c21: _and68 - _bool#3 <= 0
 c22: _and68 - lex_VM3_comp3 - _bool#3 >= -1
 c_comp_conflict: C1_VM1 + C2_VM1 <= 1
 c_comp_conflict#23: C1_VM1 + C3_VM1 <= 1
 c_comp_conflict#24: C1_VM1 + C4_VM1 <= 1
 c_comp_conflict#25: C1_VM1 + C5_VM1 <= 1
 c_comp_conflict#26: C1_VM2 + C2_VM2 <= 1
 c_comp_conflict#27: C1_VM2 + C3_VM2 <= 1
 c_comp_conflict#28: C1_VM2 + C4_VM2 <= 1
 c_comp_conflict#29: C1_VM2 + C5_VM2 <= 1
 c_comp_conflict#30: C1_VM3 + C2_VM3 <= 1
 c_comp_conflict#31: C1_VM3 + C3_VM3 <= 1
 c_comp_conflict#32: C1_VM3 + C4_VM3 <= 1
 c_comp_conflict#33: C1_VM3 + C5_VM3 <= 1
 c_comp_conflict#34: C1_VM4 + C2_VM4 <= 1
 c_comp_conflict#35: C1_VM4 + C3_VM4 <= 1
 c_comp_conflict#36: C1_VM4 + C4_VM4 <= 1
 c_comp_conflict#37: C1_VM4 + C5_VM4 <= 1
 c_comp_conflict#38: C1_VM5 + C2_VM5 <= 1
 c_comp_conflict#39: C1_VM5 + C3_VM5 <= 1
 c_comp_conflict#40: C1_VM5 + C4_VM5 <= 1
 c_comp_conflict#41: C1_VM5 + C5_VM5 <= 1
 c_comp_conflict#42: C3_VM1 + C5_VM1 <= 1
 c_comp_conflict#43: C4_VM1 + C5_VM1 <= 1
 c_comp_conflict#44: C3_VM2 + C5_VM2 <= 1
 c_comp_conflict#45: C4_VM2 + C5_VM2 <= 1
 c_comp_conflict#46: C3_VM3 + C5_VM3 <= 1
 c_comp_conflict#47: C4_VM3 + C5_VM3 <= 1
 c_comp_conflict#48: C3_VM4 + C5_VM4 <= 1
 c_comp_conflict#49: C4_VM4 + C5_VM4 <= 1
 c_comp_conflict#50: C3_VM5 + C5_VM5 <= 1
 c_comp_conflict#51: C4_VM5 + C5_VM5 <= 1
 c_upper_lower_bound: C1_VM1 + C1_VM2 + C1_VM3 + C1_VM4 + C1_VM5 = 1
 c_upper_lower_bound#53: C5_VM1 + C5_VM2 + C5_VM3 + C5_VM4 + C5_VM5 = 1
 c_upper_lower_bound#54: C1_VM1 + C1_VM2 + C1_VM3 + C1_VM4 + C1_VM5 >= 1
 c_upper_lower_bound#55: C2_VM1 + C2_VM2 + C2_VM3 + C2_VM4 + C2_VM5 >= 1
 c_upper_lower_bound#56: C3_VM1 + C3_VM2 + C3_VM3 + C3_VM4 + C3_VM5 >= 1
 c_upper_lower_bound#57: C4_VM1 + C4_VM2 + C4_VM3 + C4_VM4 + C4_VM5 >= 1
 c_upper_lower_bound#58: C5_VM1 + C5_VM2 + C5_VM3 + C5_VM4 + C5_VM5 >= 1
 c_hard_cpu: 4 C1_VM1 + 2 C2_VM1 + 4 C3_VM1 + 2 C4_VM1 + 4 C5_VM1 - ProcProv1
              <= 0
 c_hard_mem: 4096 C1_VM1 + 2048 C2_VM1 + 4096 C3_VM1 + 512 C4_VM1 + 2048 C5_VM1
             - MemProv1 <= 0
 c_hard_storage: 1024 C1_VM1 + 512 C2_VM1 + 512 C3_VM1 + 2000 C4_VM1
                 + 500 C5_VM1 - StorageProv1 <= 0
 c_hard_cpu#62: 4 C1_VM2 + 2 C2_VM2 + 4 C3_VM2 + 2 C4_VM2 + 4 C5_VM2 - ProcProv2
                 <= 0
 c_hard_mem#63: 4096 C1_VM2 + 2048 C2_VM2 + 4096 C3_VM2 + 512 C4_VM2
                + 2048 C5_VM2 - MemProv2 <= 0
 c_hard_storage#64: 1024 C1_VM2 + 512 C2_VM2 + 512 C3_VM2 + 2000 C4_VM2
                    + 500 C5_VM2 - StorageProv2 <= 0
 c_hard_cpu#65: 4 C1_VM3 + 2 C2_VM3 + 4 C3_VM3 + 2 C4_VM3 + 4 C5_VM3 - ProcProv3
                 <= 0
 c_hard_mem#66: 4096 C1_VM3 + 2048 C2_VM3 + 4096 C3_VM3 + 512 C4_VM3
                + 2048 C5_VM3 - MemProv3 <= 0
 c_hard_storage#67: 1024 C1_VM3 + 512 C2_VM3 + 512 C3_VM3 + 2000 C4_VM3
                    + 500 C5_VM3 - StorageProv3 <= 0
 c_hard_cpu#68: 4 C1_VM4 + 2 C2_VM4 + 4 C3_VM4 + 2 C4_VM4 + 4 C5_VM4 - ProcProv4
                 <= 0
 c_hard_mem#69: 4096 C1_VM4 + 2048 C2_VM4 + 4096 C3_VM4 + 512 C4_VM4
                + 2048 C5_VM4 - MemProv4 <= 0
 c_hard_storage#70: 1024 C1_VM4 + 512 C2_VM4 + 512 C3_VM4 + 2000 C4_VM4
                    + 500 C5_VM4 - StorageProv4 <= 0
 c_hard_cpu#71: 4 C1_VM5 + 2 C2_VM5 + 4 C3_VM5 + 2 C4_VM5 + 4 C5_VM5 - ProcProv5
                 <= 0
 c_hard_mem#72: 4096 C1_VM5 + 2048 C2_VM5 + 4096 C3_VM5 + 512 C4_VM5
                + 2048 C5_VM5 - MemProv5 <= 0
 c_hard_storage#73: 1024 C1_VM5 + 512 C2_VM5 + 512 C3_VM5 + 2000 C4_VM5
                    + 500 C5_VM5 - StorageProv5 <= 0
 c0_vm_allocated: vm1 = 1 <-> C1_VM1 + C2_VM1 + C3_VM1 + C4_VM1 + C5_VM1 >= 1
 c1_vm_allocated: vm2 = 1 <-> C1_VM2 + C2_VM2 + C3_VM2 + C4_VM2 + C5_VM2 >= 1
 c2_vm_allocated: vm3 = 1 <-> C1_VM3 + C2_VM3 + C3_VM3 + C4_VM3 + C5_VM3 >= 1
 c3_vm_allocated: vm4 = 1 <-> C1_VM4 + C2_VM4 + C3_VM4 + C4_VM4 + C5_VM4 >= 1
 c4_vm_allocated: vm5 = 1 <-> C1_VM5 + C2_VM5 + C3_VM5 + C4_VM5 + C5_VM5 >= 1
 c0_vm_free_price_0: vm1 = 0 -> PriceProv1 = 0
 c1_vm_free_price_0: vm2 = 0 -> PriceProv2 = 0
 c2_vm_free_price_0: vm3 = 0 -> PriceProv3 = 0
 c3_vm_free_price_0: vm4 = 0 -> PriceProv4 = 0
 c4_vm_free_price_0: vm5 = 0 -> PriceProv5 = 0
 lc11: lex_VM3_comp1 = 1 <-> C1_VM4 - C1_VM5 = 0
 lc12: lex_VM3_comp1 = 1 -> C2_VM4 - C2_VM5 >= 0
 lc13: _bool#1 = 1 <-> C2_VM4 - C2_VM5 = 0
 lc14: lex_VM3_comp2 = 1 <-> _and60 = 1
 lc15: lex_VM3_comp2 = 1 -> C3_VM4 - C3_VM5 >= 0
 lc16: _bool#2 = 1 <-> C3_VM4 - C3_VM5 = 0
 lc17: lex_VM3_comp3 = 1 <-> _and64 = 1
 lc18: lex_VM3_comp3 = 1 -> C4_VM4 - C4_VM5 >= 0
 lc19: _bool#3 = 1 <-> C4_VM4 - C4_VM5 = 0
 lc20: lex_VM3_comp4 = 1 <-> _and68 = 1
 lc21: lex_VM3_comp4 = 1 -> C5_VM4 - C5_VM5 >= 0
 lc22: aux_hard1 = 1 <-> vmType1 = 1
 c_order_vm_price: aux_hard1 = 1 -> PriceProv1 = 8403
 c_order_vm_cpu: aux_hard1 = 1 -> ProcProv1 = 64
 c_order_vm_memory: aux_hard1 = 1 -> MemProv1 = 976000
 c_order_vm_storage: aux_hard1 = 1 -> StorageProv1 = 1000
 lc27: aux_hard2 = 1 <-> vmType1 = 2
 c_order_vm_price#27: aux_hard2 = 1 -> PriceProv1 = 9152
 c_order_vm_cpu#28: aux_hard2 = 1 -> ProcProv1 = 64
 c_order_vm_memory#29: aux_hard2 = 1 -> MemProv1 = 488000
 c_order_vm_storage#30: aux_hard2 = 1 -> StorageProv1 = 8000
 lc32: aux_hard3 = 1 <-> vmType1 = 3
 c_order_vm_price#32: aux_hard3 = 1 -> PriceProv1 = 16000
 c_order_vm_cpu#33: aux_hard3 = 1 -> ProcProv1 = 64
 c_order_vm_memory#34: aux_hard3 = 1 -> MemProv1 = 1952
 c_order_vm_storage#35: aux_hard3 = 1 -> StorageProv1 = 1000
 lc37: aux_hard4 = 1 <-> vmType1 = 4
 c_order_vm_price#37: aux_hard4 = 1 -> PriceProv1 = 4105
 c_order_vm_cpu#38: aux_hard4 = 1 -> ProcProv1 = 32
 c_order_vm_memory#39: aux_hard4 = 1 -> MemProv1 = 244000
 c_order_vm_storage#40: aux_hard4 = 1 -> StorageProv1 = 2000
 lc42: aux_hard5 = 1 <-> vmType1 = 5
 c_order_vm_price#42: aux_hard5 = 1 -> PriceProv1 = 4576
 c_order_vm_cpu#43: aux_hard5 = 1 -> ProcProv1 = 32
 c_order_vm_memory#44: aux_hard5 = 1 -> MemProv1 = 244000
 c_order_vm_storage#45: aux_hard5 = 1 -> StorageProv1 = 4000
 lc47: aux_hard6 = 1 <-> vmType1 = 6
 c_order_vm_price#47: aux_hard6 = 1 -> PriceProv1 = 1373
 c_order_vm_cpu#48: aux_hard6 = 1 -> ProcProv1 = 16
 c_order_vm_memory#49: aux_hard6 = 1 -> MemProv1 = 122000
 c_order_vm_storage#50: aux_hard6 = 1 -> StorageProv1 = 2000
 lc52: aux_hard7 = 1 <-> vmType1 = 7
 c_order_vm_price#52: aux_hard7 = 1 -> PriceProv1 = 1430
 c_order_vm_cpu#53: aux_hard7 = 1 -> ProcProv1 = 16
 c_order_vm_memory#54: aux_hard7 = 1 -> MemProv1 = 30000
 c_order_vm_storage#55: aux_hard7 = 1 -> StorageProv1 = 2000
 lc57: aux_hard8 = 1 <-> vmType1 = 8
 c_order_vm_price#57: aux_hard8 = 1 -> PriceProv1 = 5400
 c_order_vm_cpu#58: aux_hard8 = 1 -> ProcProv1 = 17
 c_order_vm_memory#59: aux_hard8 = 1 -> MemProv1 = 117000
 c_order_vm_storage#60: aux_hard8 = 1 -> StorageProv1 = 24000
 lc62: aux_hard9 = 1 <-> vmType1 = 9
 c_order_vm_price#62: aux_hard9 = 1 -> PriceProv1 = 3079
 c_order_vm_cpu#63: aux_hard9 = 1 -> ProcProv1 = 16
 c_order_vm_memory#64: aux_hard9 = 1 -> MemProv1 = 122000
 c_order_vm_storage#65: aux_hard9 = 1 -> StorageProv1 = 1000
 lc67: aux_hard10 = 1 <-> vmType1 = 10
 c_order_vm_price#67: aux_hard10 = 1 -> PriceProv1 = 1470
 c_order_vm_cpu#68: aux_hard10 = 1 -> ProcProv1 = 8
 c_order_vm_memory#69: aux_hard10 = 1 -> MemProv1 = 61000
 c_order_vm_storage#70: aux_hard10 = 1 -> StorageProv1 = 6000
 lc72: aux_hard11 = 1 <-> vmType1 = 11
 c_order_vm_price#72: aux_hard11 = 1 -> PriceProv1 = 1301
 c_order_vm_cpu#73: aux_hard11 = 1 -> ProcProv1 = 8
 c_order_vm_memory#74: aux_hard11 = 1 -> MemProv1 = 68400
 c_order_vm_storage#75: aux_hard11 = 1 -> StorageProv1 = 2000
 lc77: aux_hard12 = 1 <-> vmType1 = 12
 c_order_vm_price#77: aux_hard12 = 1 -> PriceProv1 = 1288
 c_order_vm_cpu#78: aux_hard12 = 1 -> ProcProv1 = 8
 c_order_vm_memory#79: aux_hard12 = 1 -> MemProv1 = 68400
 c_order_vm_storage#80: aux_hard12 = 1 -> StorageProv1 = 2000
 lc82: aux_hard13 = 1 <-> vmType1 = 13
 c_order_vm_price#82: aux_hard13 = 1 -> PriceProv1 = 402
 c_order_vm_cpu#83: aux_hard13 = 1 -> ProcProv1 = 4
 c_order_vm_memory#84: aux_hard13 = 1 -> MemProv1 = 15000
 c_order_vm_storage#85: aux_hard13 = 1 -> StorageProv1 = 2000
 lc87: aux_hard14 = 1 <-> vmType1 = 14
 c_order_vm_price#87: aux_hard14 = 1 -> PriceProv1 = 827
 c_order_vm_cpu#88: aux_hard14 = 1 -> ProcProv1 = 4
 c_order_vm_memory#89: aux_hard14 = 1 -> MemProv1 = 30500
 c_order_vm_storage#90: aux_hard14 = 1 -> StorageProv1 = 3000
 lc92: aux_hard15 = 1 <-> vmType1 = 15
 c_order_vm_price#92: aux_hard15 = 1 -> PriceProv1 = 379
 c_order_vm_cpu#93: aux_hard15 = 1 -> ProcProv1 = 4
 c_order_vm_memory#94: aux_hard15 = 1 -> MemProv1 = 30500
 c_order_vm_storage#95: aux_hard15 = 1 -> StorageProv1 = 1000
 lc97: aux_hard16 = 1 <-> vmType1 = 16
 c_order_vm_price#97: aux_hard16 = 1 -> PriceProv1 = 146
 c_order_vm_cpu#98: aux_hard16 = 1 -> ProcProv1 = 2
 c_order_vm_memory#99: aux_hard16 = 1 -> MemProv1 = 7500
 c_order_vm_storage#100: aux_hard16 = 1 -> StorageProv1 = 1000
 lc102: aux_hard17 = 1 <-> vmType1 = 17
 c_order_vm_price#102: aux_hard17 = 1 -> PriceProv1 = 128
 c_order_vm_cpu#103: aux_hard17 = 1 -> ProcProv1 = 2
 c_order_vm_memory#104: aux_hard17 = 1 -> MemProv1 = 3750
 c_order_vm_storage#105: aux_hard17 = 1 -> StorageProv1 = 2000
 lc107: aux_hard18 = 1 <-> vmType1 = 18
 c_order_vm_price#107: aux_hard18 = 1 -> PriceProv1 = 58
 c_order_vm_cpu#108: aux_hard18 = 1 -> ProcProv1 = 1
 c_order_vm_memory#109: aux_hard18 = 1 -> MemProv1 = 1700
 c_order_vm_storage#110: aux_hard18 = 1 -> StorageProv1 = 1000
 lc112: aux_hard19 = 1 <-> vmType1 = 19
 c_order_vm_price#112: aux_hard19 = 1 -> PriceProv1 = 93
 c_order_vm_cpu#113: aux_hard19 = 1 -> ProcProv1 = 1
 c_order_vm_memory#114: aux_hard19 = 1 -> MemProv1 = 3750
 c_order_vm_storage#115: aux_hard19 = 1 -> StorageProv1 = 1000
 lc117: aux_hard20 = 1 <-> vmType1 = 20
 c_order_vm_price#117: aux_hard20 = 1 -> PriceProv1 = 98
 c_order_vm_cpu#118: aux_hard20 = 1 -> ProcProv1 = 1
 c_order_vm_memory#119: aux_hard20 = 1 -> MemProv1 = 3750
 c_order_vm_storage#120: aux_hard20 = 1 -> StorageProv1 = 1000
 lc122: vm1 = 1 -> vmType1 >= 1
 lc123: aux_hard21 = 1 <-> vmType2 = 1
 c_order_vm_price#123: aux_hard21 = 1 -> PriceProv2 = 8403
 c_order_vm_cpu#124: aux_hard21 = 1 -> ProcProv2 = 64
 c_order_vm_memory#125: aux_hard21 = 1 -> MemProv2 = 976000
 c_order_vm_storage#126: aux_hard21 = 1 -> StorageProv2 = 1000
 lc128: aux_hard22 = 1 <-> vmType2 = 2
 c_order_vm_price#128: aux_hard22 = 1 -> PriceProv2 = 9152
 c_order_vm_cpu#129: aux_hard22 = 1 -> ProcProv2 = 64
 c_order_vm_memory#130: aux_hard22 = 1 -> MemProv2 = 488000
 c_order_vm_storage#131: aux_hard22 = 1 -> StorageProv2 = 8000
 lc133: aux_hard23 = 1 <-> vmType2 = 3
 c_order_vm_price#133: aux_hard23 = 1 -> PriceProv2 = 16000
 c_order_vm_cpu#134: aux_hard23 = 1 -> ProcProv2 = 64
 c_order_vm_memory#135: aux_hard23 = 1 -> MemProv2 = 1952
 c_order_vm_storage#136: aux_hard23 = 1 -> StorageProv2 = 1000
 lc138: aux_hard24 = 1 <-> vmType2 = 4
 c_order_vm_price#138: aux_hard24 = 1 -> PriceProv2 = 4105
 c_order_vm_cpu#139: aux_hard24 = 1 -> ProcProv2 = 32
 c_order_vm_memory#140: aux_hard24 = 1 -> MemProv2 = 244000
 c_order_vm_storage#141: aux_hard24 = 1 -> StorageProv2 = 2000
 lc143: aux_hard25 = 1 <-> vmType2 = 5
 c_order_vm_price#143: aux_hard25 = 1 -> PriceProv2 = 4576
 c_order_vm_cpu#144: aux_hard25 = 1 -> ProcProv2 = 32
 c_order_vm_memory#145: aux_hard25 = 1 -> MemProv2 = 244000
 c_order_vm_storage#146: aux_hard25 = 1 -> StorageProv2 = 4000
 lc148: aux_hard26 = 1 <-> vmType2 = 6
 c_order_vm_price#148: aux_hard26 = 1 -> PriceProv2 = 1373
 c_order_vm_cpu#149: aux_hard26 = 1 -> ProcProv2 = 16
 c_order_vm_memory#150: aux_hard26 = 1 -> MemProv2 = 122000
 c_order_vm_storage#151: aux_hard26 = 1 -> StorageProv2 = 2000
 lc153: aux_hard27 = 1 <-> vmType2 = 7
 c_order_vm_price#153: aux_hard27 = 1 -> PriceProv2 = 1430
 c_order_vm_cpu#154: aux_hard27 = 1 -> ProcProv2 = 16
 c_order_vm_memory#155: aux_hard27 = 1 -> MemProv2 = 30000
 c_order_vm_storage#156: aux_hard27 = 1 -> StorageProv2 = 2000
 lc158: aux_hard28 = 1 <-> vmType2 = 8
 c_order_vm_price#158: aux_hard28 = 1 -> PriceProv2 = 5400
 c_order_vm_cpu#159: aux_hard28 = 1 -> ProcProv2 = 17
 c_order_vm_memory#160: aux_hard28 = 1 -> MemProv2 = 117000
 c_order_vm_storage#161: aux_hard28 = 1 -> StorageProv2 = 24000
 lc163: aux_hard29 = 1 <-> vmType2 = 9
 c_order_vm_price#163: aux_hard29 = 1 -> PriceProv2 = 3079
 c_order_vm_cpu#164: aux_hard29 = 1 -> ProcProv2 = 16
 c_order_vm_memory#165: aux_hard29 = 1 -> MemProv2 = 122000
 c_order_vm_storage#166: aux_hard29 = 1 -> StorageProv2 = 1000
 lc168: aux_hard30 = 1 <-> vmType2 = 10
 c_order_vm_price#168: aux_hard30 = 1 -> PriceProv2 = 1470
 c_order_vm_cpu#169: aux_hard30 = 1 -> ProcProv2 = 8
 c_order_vm_memory#170: aux_hard30 = 1 -> MemProv2 = 61000
 c_order_vm_storage#171: aux_hard30 = 1 -> StorageProv2 = 6000
 lc173: aux_hard31 = 1 <-> vmType2 = 11
 c_order_vm_price#173: aux_hard31 = 1 -> PriceProv2 = 1301
 c_order_vm_cpu#174: aux_hard31 = 1 -> ProcProv2 = 8
 c_order_vm_memory#175: aux_hard31 = 1 -> MemProv2 = 68400
 c_order_vm_storage#176: aux_hard31 = 1 -> StorageProv2 = 2000
 lc178: aux_hard32 = 1 <-> vmType2 = 12
 c_order_vm_price#178: aux_hard32 = 1 -> PriceProv2 = 1288
 c_order_vm_cpu#179: aux_hard32 = 1 -> ProcProv2 = 8
 c_order_vm_memory#180: aux_hard32 = 1 -> MemProv2 = 68400
 c_order_vm_storage#181: aux_hard32 = 1 -> StorageProv2 = 2000
 lc183: aux_hard33 = 1 <-> vmType2 = 13
 c_order_vm_price#183: aux_hard33 = 1 -> PriceProv2 = 402
 c_order_vm_cpu#184: aux_hard33 = 1 -> ProcProv2 = 4
 c_order_vm_memory#185: aux_hard33 = 1 -> MemProv2 = 15000
 c_order_vm_storage#186: aux_hard33 = 1 -> StorageProv2 = 2000
 lc188: aux_hard34 = 1 <-> vmType2 = 14
 c_order_vm_price#188: aux_hard34 = 1 -> PriceProv2 = 827
 c_order_vm_cpu#189: aux_hard34 = 1 -> ProcProv2 = 4
 c_order_vm_memory#190: aux_hard34 = 1 -> MemProv2 = 30500
 c_order_vm_storage#191: aux_hard34 = 1 -> StorageProv2 = 3000
 lc193: aux_hard35 = 1 <-> vmType2 = 15
 c_order_vm_price#193: aux_hard35 = 1 -> PriceProv2 = 379
 c_order_vm_cpu#194: aux_hard35 = 1 -> ProcProv2 = 4
 c_order_vm_memory#195: aux_hard35 = 1 -> MemProv2 = 30500
 c_order_vm_storage#196: aux_hard35 = 1 -> StorageProv2 = 1000
 lc198: aux_hard36 = 1 <-> vmType2 = 16
 c_order_vm_price#198: aux_hard36 = 1 -> PriceProv2 = 146
 c_order_vm_cpu#199: aux_hard36 = 1 -> ProcProv2 = 2
 c_order_vm_memory#200: aux_hard36 = 1 -> MemProv2 = 7500
 c_order_vm_storage#201: aux_hard36 = 1 -> StorageProv2 = 1000
 lc203: aux_hard37 = 1 <-> vmType2 = 17
 c_order_vm_price#203: aux_hard37 = 1 -> PriceProv2 = 128
 c_order_vm_cpu#204: aux_hard37 = 1 -> ProcProv2 = 2
 c_order_vm_memory#205: aux_hard37 = 1 -> MemProv2 = 3750
 c_order_vm_storage#206: aux_hard37 = 1 -> StorageProv2 = 2000
 lc208: aux_hard38 = 1 <-> vmType2 = 18
 c_order_vm_price#208: aux_hard38 = 1 -> PriceProv2 = 58
 c_order_vm_cpu#209: aux_hard38 = 1 -> ProcProv2 = 1
 c_order_vm_memory#210: aux_hard38 = 1 -> MemProv2 = 1700
 c_order_vm_storage#211: aux_hard38 = 1 -> StorageProv2 = 1000
 lc213: aux_hard39 = 1 <-> vmType2 = 19
 c_order_vm_price#213: aux_hard39 = 1 -> PriceProv2 = 93
 c_order_vm_cpu#214: aux_hard39 = 1 -> ProcProv2 = 1
 c_order_vm_memory#215: aux_hard39 = 1 -> MemProv2 = 3750
 c_order_vm_storage#216: aux_hard39 = 1 -> StorageProv2 = 1000
 lc218: aux_hard40 = 1 <-> vmType2 = 20
 c_order_vm_price#218: aux_hard40 = 1 -> PriceProv2 = 98
 c_order_vm_cpu#219: aux_hard40 = 1 -> ProcProv2 = 1
 c_order_vm_memory#220: aux_hard40 = 1 -> MemProv2 = 3750
 c_order_vm_storage#221: aux_hard40 = 1 -> StorageProv2 = 1000
 lc223: vm2 = 1 -> vmType2 >= 1
 lc224: aux_hard41 = 1 <-> vmType3 = 1
 c_order_vm_price#224: aux_hard41 = 1 -> PriceProv3 = 8403
 c_order_vm_cpu#225: aux_hard41 = 1 -> ProcProv3 = 64
 c_order_vm_memory#226: aux_hard41 = 1 -> MemProv3 = 976000
 c_order_vm_storage#227: aux_hard41 = 1 -> StorageProv3 = 1000
 lc229: aux_hard42 = 1 <-> vmType3 = 2
 c_order_vm_price#229: aux_hard42 = 1 -> PriceProv3 = 9152
 c_order_vm_cpu#230: aux_hard42 = 1 -> ProcProv3 = 64
 c_order_vm_memory#231: aux_hard42 = 1 -> MemProv3 = 488000
 c_order_vm_storage#232: aux_hard42 = 1 -> StorageProv3 = 8000
 lc234: aux_hard43 = 1 <-> vmType3 = 3
 c_order_vm_price#234: aux_hard43 = 1 -> PriceProv3 = 16000
 c_order_vm_cpu#235: aux_hard43 = 1 -> ProcProv3 = 64
 c_order_vm_memory#236: aux_hard43 = 1 -> MemProv3 = 1952
 c_order_vm_storage#237: aux_hard43 = 1 -> StorageProv3 = 1000
 lc239: aux_hard44 = 1 <-> vmType3 = 4
 c_order_vm_price#239: aux_hard44 = 1 -> PriceProv3 = 4105
 c_order_vm_cpu#240: aux_hard44 = 1 -> ProcProv3 = 32
 c_order_vm_memory#241: aux_hard44 = 1 -> MemProv3 = 244000
 c_order_vm_storage#242: aux_hard44 = 1 -> StorageProv3 = 2000
 lc244: aux_hard45 = 1 <-> vmType3 = 5
 c_order_vm_price#244: aux_hard45 = 1 -> PriceProv3 = 4576
 c_order_vm_cpu#245: aux_hard45 = 1 -> ProcProv3 = 32
 c_order_vm_memory#246: aux_hard45 = 1 -> MemProv3 = 244000
 c_order_vm_storage#247: aux_hard45 = 1 -> StorageProv3 = 4000
 lc249: aux_hard46 = 1 <-> vmType3 = 6
 c_order_vm_price#249: aux_hard46 = 1 -> PriceProv3 = 1373
 c_order_vm_cpu#250: aux_hard46 = 1 -> ProcProv3 = 16
 c_order_vm_memory#251: aux_hard46 = 1 -> MemProv3 = 122000
 c_order_vm_storage#252: aux_hard46 = 1 -> StorageProv3 = 2000
 lc254: aux_hard47 = 1 <-> vmType3 = 7
 c_order_vm_price#254: aux_hard47 = 1 -> PriceProv3 = 1430
 c_order_vm_cpu#255: aux_hard47 = 1 -> ProcProv3 = 16
 c_order_vm_memory#256: aux_hard47 = 1 -> MemProv3 = 30000
 c_order_vm_storage#257: aux_hard47 = 1 -> StorageProv3 = 2000
 lc259: aux_hard48 = 1 <-> vmType3 = 8
 c_order_vm_price#259: aux_hard48 = 1 -> PriceProv3 = 5400
 c_order_vm_cpu#260: aux_hard48 = 1 -> ProcProv3 = 17
 c_order_vm_memory#261: aux_hard48 = 1 -> MemProv3 = 117000
 c_order_vm_storage#262: aux_hard48 = 1 -> StorageProv3 = 24000
 lc264: aux_hard49 = 1 <-> vmType3 = 9
 c_order_vm_price#264: aux_hard49 = 1 -> PriceProv3 = 3079
 c_order_vm_cpu#265: aux_hard49 = 1 -> ProcProv3 = 16
 c_order_vm_memory#266: aux_hard49 = 1 -> MemProv3 = 122000
 c_order_vm_storage#267: aux_hard49 = 1 -> StorageProv3 = 1000
 lc269: aux_hard50 = 1 <-> vmType3 = 10
 c_order_vm_price#269: aux_hard50 = 1 -> PriceProv3 = 1470
 c_order_vm_cpu#270: aux_hard50 = 1 -> ProcProv3 = 8
 c_order_vm_memory#271: aux_hard50 = 1 -> MemProv3 = 61000
 c_order_vm_storage#272: aux_hard50 = 1 -> StorageProv3 = 6000
 lc274: aux_hard51 = 1 <-> vmType3 = 11
 c_order_vm_price#274: aux_hard51 = 1 -> PriceProv3 = 1301
 c_order_vm_cpu#275: aux_hard51 = 1 -> ProcProv3 = 8
 c_order_vm_memory#276: aux_hard51 = 1 -> MemProv3 = 68400
 c_order_vm_storage#277: aux_hard51 = 1 -> StorageProv3 = 2000
 lc279: aux_hard52 = 1 <-> vmType3 = 12
 c_order_vm_price#279: aux_hard52 = 1 -> PriceProv3 = 1288
 c_order_vm_cpu#280: aux_hard52 = 1 -> ProcProv3 = 8
 c_order_vm_memory#281: aux_hard52 = 1 -> MemProv3 = 68400
 c_order_vm_storage#282: aux_hard52 = 1 -> StorageProv3 = 2000
 lc284: aux_hard53 = 1 <-> vmType3 = 13
 c_order_vm_price#284: aux_hard53 = 1 -> PriceProv3 = 402
 c_order_vm_cpu#285: aux_hard53 = 1 -> ProcProv3 = 4
 c_order_vm_memory#286: aux_hard53 = 1 -> MemProv3 = 15000
 c_order_vm_storage#287: aux_hard53 = 1 -> StorageProv3 = 2000
 lc289: aux_hard54 = 1 <-> vmType3 = 14
 c_order_vm_price#289: aux_hard54 = 1 -> PriceProv3 = 827
 c_order_vm_cpu#290: aux_hard54 = 1 -> ProcProv3 = 4
 c_order_vm_memory#291: aux_hard54 = 1 -> MemProv3 = 30500
 c_order_vm_storage#292: aux_hard54 = 1 -> StorageProv3 = 3000
 lc294: aux_hard55 = 1 <-> vmType3 = 15
 c_order_vm_price#294: aux_hard55 = 1 -> PriceProv3 = 379
 c_order_vm_cpu#295: aux_hard55 = 1 -> ProcProv3 = 4
 c_order_vm_memory#296: aux_hard55 = 1 -> MemProv3 = 30500
 c_order_vm_storage#297: aux_hard55 = 1 -> StorageProv3 = 1000
 lc299: aux_hard56 = 1 <-> vmType3 = 16
 c_order_vm_price#299: aux_hard56 = 1 -> PriceProv3 = 146
 c_order_vm_cpu#300: aux_hard56 = 1 -> ProcProv3 = 2
 c_order_vm_memory#301: aux_hard56 = 1 -> MemProv3 = 7500
 c_order_vm_storage#302: aux_hard56 = 1 -> StorageProv3 = 1000
 lc304: aux_hard57 = 1 <-> vmType3 = 17
 c_order_vm_price#304: aux_hard57 = 1 -> PriceProv3 = 128
 c_order_vm_cpu#305: aux_hard57 = 1 -> ProcProv3 = 2
 c_order_vm_memory#306: aux_hard57 = 1 -> MemProv3 = 3750
 c_order_vm_storage#307: aux_hard57 = 1 -> StorageProv3 = 2000
 lc309: aux_hard58 = 1 <-> vmType3 = 18
 c_order_vm_price#309: aux_hard58 = 1 -> PriceProv3 = 58
 c_order_vm_cpu#310: aux_hard58 = 1 -> ProcProv3 = 1
 c_order_vm_memory#311: aux_hard58 = 1 -> MemProv3 = 1700
 c_order_vm_storage#312: aux_hard58 = 1 -> StorageProv3 = 1000
 lc314: aux_hard59 = 1 <-> vmType3 = 19
 c_order_vm_price#314: aux_hard59 = 1 -> PriceProv3 = 93
 c_order_vm_cpu#315: aux_hard59 = 1 -> ProcProv3 = 1
 c_order_vm_memory#316: aux_hard59 = 1 -> MemProv3 = 3750
 c_order_vm_storage#317: aux_hard59 = 1 -> StorageProv3 = 1000
 lc319: aux_hard60 = 1 <-> vmType3 = 20
 c_order_vm_price#319: aux_hard60 = 1 -> PriceProv3 = 98
 c_order_vm_cpu#320: aux_hard60 = 1 -> ProcProv3 = 1
 c_order_vm_memory#321: aux_hard60 = 1 -> MemProv3 = 3750
 c_order_vm_storage#322: aux_hard60 = 1 -> StorageProv3 = 1000
 lc324: vm3 = 1 -> vmType3 >= 1
 lc325: aux_hard61 = 1 <-> vmType4 = 1
 c_order_vm_price#325: aux_hard61 = 1 -> PriceProv4 = 8403
 c_order_vm_cpu#326: aux_hard61 = 1 -> ProcProv4 = 64
 c_order_vm_memory#327: aux_hard61 = 1 -> MemProv4 = 976000
 c_order_vm_storage#328: aux_hard61 = 1 -> StorageProv4 = 1000
 lc330: aux_hard62 = 1 <-> vmType4 = 2
 c_order_vm_price#330: aux_hard62 = 1 -> PriceProv4 = 9152
 c_order_vm_cpu#331: aux_hard62 = 1 -> ProcProv4 = 64
 c_order_vm_memory#332: aux_hard62 = 1 -> MemProv4 = 488000
 c_order_vm_storage#333: aux_hard62 = 1 -> StorageProv4 = 8000
 lc335: aux_hard63 = 1 <-> vmType4 = 3
 c_order_vm_price#335: aux_hard63 = 1 -> PriceProv4 = 16000
 c_order_vm_cpu#336: aux_hard63 = 1 -> ProcProv4 = 64
 c_order_vm_memory#337: aux_hard63 = 1 -> MemProv4 = 1952
 c_order_vm_storage#338: aux_hard63 = 1 -> StorageProv4 = 1000
 lc340: aux_hard64 = 1 <-> vmType4 = 4
 c_order_vm_price#340: aux_hard64 = 1 -> PriceProv4 = 4105
 c_order_vm_cpu#341: aux_hard64 = 1 -> ProcProv4 = 32
 c_order_vm_memory#342: aux_hard64 = 1 -> MemProv4 = 244000
 c_order_vm_storage#343: aux_hard64 = 1 -> StorageProv4 = 2000
 lc345: aux_hard65 = 1 <-> vmType4 = 5
 c_order_vm_price#345: aux_hard65 = 1 -> PriceProv4 = 4576
 c_order_vm_cpu#346: aux_hard65 = 1 -> ProcProv4 = 32
 c_order_vm_memory#347: aux_hard65 = 1 -> MemProv4 = 244000
 c_order_vm_storage#348: aux_hard65 = 1 -> StorageProv4 = 4000
 lc350: aux_hard66 = 1 <-> vmType4 = 6
 c_order_vm_price#350: aux_hard66 = 1 -> PriceProv4 = 1373
 c_order_vm_cpu#351: aux_hard66 = 1 -> ProcProv4 = 16
 c_order_vm_memory#352: aux_hard66 = 1 -> MemProv4 = 122000
 c_order_vm_storage#353: aux_hard66 = 1 -> StorageProv4 = 2000
 lc355: aux_hard67 = 1 <-> vmType4 = 7
 c_order_vm_price#355: aux_hard67 = 1 -> PriceProv4 = 1430
 c_order_vm_cpu#356: aux_hard67 = 1 -> ProcProv4 = 16
 c_order_vm_memory#357: aux_hard67 = 1 -> MemProv4 = 30000
 c_order_vm_storage#358: aux_hard67 = 1 -> StorageProv4 = 2000
 lc360: aux_hard68 = 1 <-> vmType4 = 8
 c_order_vm_price#360: aux_hard68 = 1 -> PriceProv4 = 5400
 c_order_vm_cpu#361: aux_hard68 = 1 -> ProcProv4 = 17
 c_order_vm_memory#362: aux_hard68 = 1 -> MemProv4 = 117000
 c_order_vm_storage#363: aux_hard68 = 1 -> StorageProv4 = 24000
 lc365: aux_hard69 = 1 <-> vmType4 = 9
 c_order_vm_price#365: aux_hard69 = 1 -> PriceProv4 = 3079
 c_order_vm_cpu#366: aux_hard69 = 1 -> ProcProv4 = 16
 c_order_vm_memory#367: aux_hard69 = 1 -> MemProv4 = 122000
 c_order_vm_storage#368: aux_hard69 = 1 -> StorageProv4 = 1000
 lc370: aux_hard70 = 1 <-> vmType4 = 10
 c_order_vm_price#370: aux_hard70 = 1 -> PriceProv4 = 1470
 c_order_vm_cpu#371: aux_hard70 = 1 -> ProcProv4 = 8
 c_order_vm_memory#372: aux_hard70 = 1 -> MemProv4 = 61000
 c_order_vm_storage#373: aux_hard70 = 1 -> StorageProv4 = 6000
 lc375: aux_hard71 = 1 <-> vmType4 = 11
 c_order_vm_price#375: aux_hard71 = 1 -> PriceProv4 = 1301
 c_order_vm_cpu#376: aux_hard71 = 1 -> ProcProv4 = 8
 c_order_vm_memory#377: aux_hard71 = 1 -> MemProv4 = 68400
 c_order_vm_storage#378: aux_hard71 = 1 -> StorageProv4 = 2000
 lc380: aux_hard72 = 1 <-> vmType4 = 12
 c_order_vm_price#380: aux_hard72 = 1 -> PriceProv4 = 1288
 c_order_vm_cpu#381: aux_hard72 = 1 -> ProcProv4 = 8
 c_order_vm_memory#382: aux_hard72 = 1 -> MemProv4 = 68400
 c_order_vm_storage#383: aux_hard72 = 1 -> StorageProv4 = 2000
 lc385: aux_hard73 = 1 <-> vmType4 = 13
 c_order_vm_price#385: aux_hard73 = 1 -> PriceProv4 = 402
 c_order_vm_cpu#386: aux_hard73 = 1 -> ProcProv4 = 4
 c_order_vm_memory#387: aux_hard73 = 1 -> MemProv4 = 15000
 c_order_vm_storage#388: aux_hard73 = 1 -> StorageProv4 = 2000
 lc390: aux_hard74 = 1 <-> vmType4 = 14
 c_order_vm_price#390: aux_hard74 = 1 -> PriceProv4 = 827
 c_order_vm_cpu#391: aux_hard74 = 1 -> ProcProv4 = 4
 c_order_vm_memory#392: aux_hard74 = 1 -> MemProv4 = 30500
 c_order_vm_storage#393: aux_hard74 = 1 -> StorageProv4 = 3000
 lc395: aux_hard75 = 1 <-> vmType4 = 15
 c_order_vm_price#395: aux_hard75 = 1 -> PriceProv4 = 379
 c_order_vm_cpu#396: aux_hard75 = 1 -> ProcProv4 = 4
 c_order_vm_memory#397: aux_hard75 = 1 -> MemProv4 = 30500
 c_order_vm_storage#398: aux_hard75 = 1 -> StorageProv4 = 1000
 lc400: aux_hard76 = 1 <-> vmType4 = 16
 c_order_vm_price#400: aux_hard76 = 1 -> PriceProv4 = 146
 c_order_vm_cpu#401: aux_hard76 = 1 -> ProcProv4 = 2
 c_order_vm_memory#402: aux_hard76 = 1 -> MemProv4 = 7500
 c_order_vm_storage#403: aux_hard76 = 1 -> StorageProv4 = 1000
 lc405: aux_hard77 = 1 <-> vmType4 = 17
 c_order_vm_price#405: aux_hard77 = 1 -> PriceProv4 = 128
 c_order_vm_cpu#406: aux_hard77 = 1 -> ProcProv4 = 2
 c_order_vm_memory#407: aux_hard77 = 1 -> MemProv4 = 3750
 c_order_vm_storage#408: aux_hard77 = 1 -> StorageProv4 = 2000
 lc410: aux_hard78 = 1 <-> vmType4 = 18
 c_order_vm_price#410: aux_hard78 = 1 -> PriceProv4 = 58
 c_order_vm_cpu#411: aux_hard78 = 1 -> ProcProv4 = 1
 c_order_vm_memory#412: aux_hard78 = 1 -> MemProv4 = 1700
 c_order_vm_storage#413: aux_hard78 = 1 -> StorageProv4 = 1000
 lc415: aux_hard79 = 1 <-> vmType4 = 19
 c_order_vm_price#415: aux_hard79 = 1 -> PriceProv4 = 93
 c_order_vm_cpu#416: aux_hard79 = 1 -> ProcProv4 = 1
 c_order_vm_memory#417: aux_hard79 = 1 -> MemProv4 = 3750
 c_order_vm_storage#418: aux_hard79 = 1 -> StorageProv4 = 1000
 lc420: aux_hard80 = 1 <-> vmType4 = 20
 c_order_vm_price#420: aux_hard80 = 1 -> PriceProv4 = 98
 c_order_vm_cpu#421: aux_hard80 = 1 -> ProcProv4 = 1
 c_order_vm_memory#422: aux_hard80 = 1 -> MemProv4 = 3750
 c_order_vm_storage#423: aux_hard80 = 1 -> StorageProv4 = 1000
 lc425: vm4 = 1 -> vmType4 >= 1
 lc426: aux_hard81 = 1 <-> vmType5 = 1
 c_order_vm_price#426: aux_hard81 = 1 -> PriceProv5 = 8403
 c_order_vm_cpu#427: aux_hard81 = 1 -> ProcProv5 = 64
 c_order_vm_memory#428: aux_hard81 = 1 -> MemProv5 = 976000
 c_order_vm_storage#429: aux_hard81 = 1 -> StorageProv5 = 1000
 lc431: aux_hard82 = 1 <-> vmType5 = 2
 c_order_vm_price#431: aux_hard82 = 1 -> PriceProv5 = 9152
 c_order_vm_cpu#432: aux_hard82 = 1 -> ProcProv5 = 64
 c_order_vm_memory#433: aux_hard82 = 1 -> MemProv5 = 488000
 c_order_vm_storage#434: aux_hard82 = 1 -> StorageProv5 = 8000
 lc436: aux_hard83 = 1 <-> vmType5 = 3
 c_order_vm_price#436: aux_hard83 = 1 -> PriceProv5 = 16000
 c_order_vm_cpu#437: aux_hard83 = 1 -> ProcProv5 = 64
 c_order_vm_memory#438: aux_hard83 = 1 -> MemProv5 = 1952
 c_order_vm_storage#439: aux_hard83 = 1 -> StorageProv5 = 1000
 lc441: aux_hard84 = 1 <-> vmType5 = 4
 c_order_vm_price#441: aux_hard84 = 1 -> PriceProv5 = 4105
 c_order_vm_cpu#442: aux_hard84 = 1 -> ProcProv5 = 32
 c_order_vm_memory#443: aux_hard84 = 1 -> MemProv5 = 244000
 c_order_vm_storage#444: aux_hard84 = 1 -> StorageProv5 = 2000
 lc446: aux_hard85 = 1 <-> vmType5 = 5
 c_order_vm_price#446: aux_hard85 = 1 -> PriceProv5 = 4576
 c_order_vm_cpu#447: aux_hard85 = 1 -> ProcProv5 = 32
 c_order_vm_memory#448: aux_hard85 = 1 -> MemProv5 = 244000
 c_order_vm_storage#449: aux_hard85 = 1 -> StorageProv5 = 4000
 lc451: aux_hard86 = 1 <-> vmType5 = 6
 c_order_vm_price#451: aux_hard86 = 1 -> PriceProv5 = 1373
 c_order_vm_cpu#452: aux_hard86 = 1 -> ProcProv5 = 16
 c_order_vm_memory#453: aux_hard86 = 1 -> MemProv5 = 122000
 c_order_vm_storage#454: aux_hard86 = 1 -> StorageProv5 = 2000
 lc456: aux_hard87 = 1 <-> vmType5 = 7
 c_order_vm_price#456: aux_hard87 = 1 -> PriceProv5 = 1430
 c_order_vm_cpu#457: aux_hard87 = 1 -> ProcProv5 = 16
 c_order_vm_memory#458: aux_hard87 = 1 -> MemProv5 = 30000
 c_order_vm_storage#459: aux_hard87 = 1 -> StorageProv5 = 2000
 lc461: aux_hard88 = 1 <-> vmType5 = 8
 c_order_vm_price#461: aux_hard88 = 1 -> PriceProv5 = 5400
 c_order_vm_cpu#462: aux_hard88 = 1 -> ProcProv5 = 17
 c_order_vm_memory#463: aux_hard88 = 1 -> MemProv5 = 117000
 c_order_vm_storage#464: aux_hard88 = 1 -> StorageProv5 = 24000
 lc466: aux_hard89 = 1 <-> vmType5 = 9
 c_order_vm_price#466: aux_hard89 = 1 -> PriceProv5 = 3079
 c_order_vm_cpu#467: aux_hard89 = 1 -> ProcProv5 = 16
 c_order_vm_memory#468: aux_hard89 = 1 -> MemProv5 = 122000
 c_order_vm_storage#469: aux_hard89 = 1 -> StorageProv5 = 1000
 lc471: aux_hard90 = 1 <-> vmType5 = 10
 c_order_vm_price#471: aux_hard90 = 1 -> PriceProv5 = 1470
 c_order_vm_cpu#472: aux_hard90 = 1 -> ProcProv5 = 8
 c_order_vm_memory#473: aux_hard90 = 1 -> MemProv5 = 61000
 c_order_vm_storage#474: aux_hard90 = 1 -> StorageProv5 = 6000
 lc476: aux_hard91 = 1 <-> vmType5 = 11
 c_order_vm_price#476: aux_hard91 = 1 -> PriceProv5 = 1301
 c_order_vm_cpu#477: aux_hard91 = 1 -> ProcProv5 = 8
 c_order_vm_memory#478: aux_hard91 = 1 -> MemProv5 = 68400
 c_order_vm_storage#479: aux_hard91 = 1 -> StorageProv5 = 2000
 lc481: aux_hard92 = 1 <-> vmType5 = 12
 c_order_vm_price#481: aux_hard92 = 1 -> PriceProv5 = 1288
 c_order_vm_cpu#482: aux_hard92 = 1 -> ProcProv5 = 8
 c_order_vm_memory#483: aux_hard92 = 1 -> MemProv5 = 68400
 c_order_vm_storage#484: aux_hard92 = 1 -> StorageProv5 = 2000
 lc486: aux_hard93 = 1 <-> vmType5 = 13
 c_order_vm_price#486: aux_hard93 = 1 -> PriceProv5 = 402
 c_order_vm_cpu#487: aux_hard93 = 1 -> ProcProv5 = 4
 c_order_vm_memory#488: aux_hard93 = 1 -> MemProv5 = 15000
 c_order_vm_storage#489: aux_hard93 = 1 -> StorageProv5 = 2000
 lc491: aux_hard94 = 1 <-> vmType5 = 14
 c_order_vm_price#491: aux_hard94 = 1 -> PriceProv5 = 827
 c_order_vm_cpu#492: aux_hard94 = 1 -> ProcProv5 = 4
 c_order_vm_memory#493: aux_hard94 = 1 -> MemProv5 = 30500
 c_order_vm_storage#494: aux_hard94 = 1 -> StorageProv5 = 3000
 lc496: aux_hard95 = 1 <-> vmType5 = 15
 c_order_vm_price#496: aux_hard95 = 1 -> PriceProv5 = 379
 c_order_vm_cpu#497: aux_hard95 = 1 -> ProcProv5 = 4
 c_order_vm_memory#498: aux_hard95 = 1 -> MemProv5 = 30500
 c_order_vm_storage#499: aux_hard95 = 1 -> StorageProv5 = 1000
 lc501: aux_hard96 = 1 <-> vmType5 = 16
 c_order_vm_price#501: aux_hard96 = 1 -> PriceProv5 = 146
 c_order_vm_cpu#502: aux_hard96 = 1 -> ProcProv5 = 2
 c_order_vm_memory#503: aux_hard96 = 1 -> MemProv5 = 7500
 c_order_vm_storage#504: aux_hard96 = 1 -> StorageProv5 = 1000
 lc506: aux_hard97 = 1 <-> vmType5 = 17
 c_order_vm_price#506: aux_hard97 = 1 -> PriceProv5 = 128
 c_order_vm_cpu#507: aux_hard97 = 1 -> ProcProv5 = 2
 c_order_vm_memory#508: aux_hard97 = 1 -> MemProv5 = 3750
 c_order_vm_storage#509: aux_hard97 = 1 -> StorageProv5 = 2000
 lc511: aux_hard98 = 1 <-> vmType5 = 18
 c_order_vm_price#511: aux_hard98 = 1 -> PriceProv5 = 58
 c_order_vm_cpu#512: aux_hard98 = 1 -> ProcProv5 = 1
 c_order_vm_memory#513: aux_hard98 = 1 -> MemProv5 = 1700
 c_order_vm_storage#514: aux_hard98 = 1 -> StorageProv5 = 1000
 lc516: aux_hard99 = 1 <-> vmType5 = 19
 c_order_vm_price#516: aux_hard99 = 1 -> PriceProv5 = 93
 c_order_vm_cpu#517: aux_hard99 = 1 -> ProcProv5 = 1
 c_order_vm_memory#518: aux_hard99 = 1 -> MemProv5 = 3750
 c_order_vm_storage#519: aux_hard99 = 1 -> StorageProv5 = 1000
 lc521: aux_hard100 = 1 <-> vmType5 = 20
 c_order_vm_price#521: aux_hard100 = 1 -> PriceProv5 = 98
 c_order_vm_cpu#522: aux_hard100 = 1 -> ProcProv5 = 1
 c_order_vm_memory#523: aux_hard100 = 1 -> MemProv5 = 3750
 c_order_vm_storage#524: aux_hard100 = 1 -> StorageProv5 = 1000
 lc526: vm5 = 1 -> vmType5 >= 1

Bounds
 0 <= vm1 <= 1
 0 <= vm2 <= 1
 0 <= vm3 <= 1
 0 <= vm4 <= 1
 0 <= vm5 <= 1
 0 <= C1_VM1 <= 1
 0 <= C1_VM2 <= 1
 0 <= C1_VM3 <= 1
 0 <= C1_VM4 <= 1
 0 <= C1_VM5 <= 1
 0 <= C2_VM1 <= 1
 0 <= C2_VM2 <= 1
 0 <= C2_VM3 <= 1
 0 <= C2_VM4 <= 1
 0 <= C2_VM5 <= 1
 0 <= C3_VM1 <= 1
 0 <= C3_VM2 <= 1
 0 <= C3_VM3 <= 1
 0 <= C3_VM4 <= 1
 0 <= C3_VM5 <= 1
 0 <= C4_VM1 <= 1
 0 <= C4_VM2 <= 1
 0 <= C4_VM3 <= 1
 0 <= C4_VM4 <= 1
 0 <= C4_VM5 <= 1
 0 <= C5_VM1 <= 1
 0 <= C5_VM2 <= 1
 0 <= C5_VM3 <= 1
 0 <= C5_VM4 <= 1
 0 <= C5_VM5 <= 1
       vmType1 <= 20
       vmType2 <= 20
       vmType3 <= 20
       vmType4 <= 20
       vmType5 <= 20
 1 <= ProcProv1 <= 64
 1 <= ProcProv2 <= 64
 1 <= ProcProv3 <= 64
 1 <= ProcProv4 <= 64
 1 <= ProcProv5 <= 64
 1700 <= MemProv1 <= 976000
 1700 <= MemProv2 <= 976000
 1700 <= MemProv3 <= 976000
 1700 <= MemProv4 <= 976000
 1700 <= MemProv5 <= 976000
 1000 <= StorageProv1 <= 24000
 1000 <= StorageProv2 <= 24000
 1000 <= StorageProv3 <= 24000
 1000 <= StorageProv4 <= 24000
 1000 <= StorageProv5 <= 24000
       PriceProv1 <= 16000
       PriceProv2 <= 16000
       PriceProv3 <= 16000
       PriceProv4 <= 16000
       PriceProv5 <= 16000
 0 <= lex_VM3_comp0 <= 1
 0 <= lex_VM3_comp1 <= 1
 0 <= lex_VM3_comp2 <= 1
       x59 Free
 0 <= _bool#1 <= 1
 0 <= _and60 <= 1
 0 <= lex_VM3_comp3 <= 1
       x63 Free
 0 <= _bool#2 <= 1
 0 <= _and64 <= 1
 0 <= lex_VM3_comp4 <= 1
       x67 Free
 0 <= _bool#3 <= 1
 0 <= _and68 <= 1
 0 <= aux_hard1 <= 1
 0 <= aux_hard2 <= 1
 0 <= aux_hard3 <= 1
 0 <= aux_hard4 <= 1
 0 <= aux_hard5 <= 1
 0 <= aux_hard6 <= 1
 0 <= aux_hard7 <= 1
 0 <= aux_hard8 <= 1
 0 <= aux_hard9 <= 1
 0 <= aux_hard10 <= 1
 0 <= aux_hard11 <= 1
 0 <= aux_hard12 <= 1
 0 <= aux_hard13 <= 1
 0 <= aux_hard14 <= 1
 0 <= aux_hard15 <= 1
 0 <= aux_hard16 <= 1
 0 <= aux_hard17 <= 1
 0 <= aux_hard18 <= 1
 0 <= aux_hard19 <= 1
 0 <= aux_hard20 <= 1
 0 <= aux_hard21 <= 1
 0 <= aux_hard22 <= 1
 0 <= aux_hard23 <= 1
 0 <= aux_hard24 <= 1
 0 <= aux_hard25 <= 1
 0 <= aux_hard26 <= 1
 0 <= aux_hard27 <= 1
 0 <= aux_hard28 <= 1
 0 <= aux_hard29 <= 1
 0 <= aux_hard30 <= 1
 0 <= aux_hard31 <= 1
 0 <= aux_hard32 <= 1
 0 <= aux_hard33 <= 1
 0 <= aux_hard34 <= 1
 0 <= aux_hard35 <= 1
 0 <= aux_hard36 <= 1
 0 <= aux_hard37 <= 1
 0 <= aux_hard38 <= 1
 0 <= aux_hard39 <= 1
 0 <= aux_hard40 <= 1
 0 <= aux_hard41 <= 1
 0 <= aux_hard42 <= 1
 0 <= aux_hard43 <= 1
 0 <= aux_hard44 <= 1
 0 <= aux_hard45 <= 1
 0 <= aux_hard46 <= 1
 0 <= aux_hard47 <= 1
 0 <= aux_hard48 <= 1
 0 <= aux_hard49 <= 1
 0 <= aux_hard50 <= 1
 0 <= aux_hard51 <= 1
 0 <= aux_hard52 <= 1
 0 <= aux_hard53 <= 1
 0 <= aux_hard54 <= 1
 0 <= aux_hard55 <= 1
 0 <= aux_hard56 <= 1
 0 <= aux_hard57 <= 1
 0 <= aux_hard58 <= 1
 0 <= aux_hard59 <= 1
 0 <= aux_hard60 <= 1
 0 <= aux_hard61 <= 1
 0 <= aux_hard62 <= 1
 0 <= aux_hard63 <= 1
 0 <= aux_hard64 <= 1
 0 <= aux_hard65 <= 1
 0 <= aux_hard66 <= 1
 0 <= aux_hard67 <= 1
 0 <= aux_hard68 <= 1
 0 <= aux_hard69 <= 1
 0 <= aux_hard70 <= 1
 0 <= aux_hard71 <= 1
 0 <= aux_hard72 <= 1
 0 <= aux_hard73 <= 1
 0 <= aux_hard74 <= 1
 0 <= aux_hard75 <= 1
 0 <= aux_hard76 <= 1
 0 <= aux_hard77 <= 1
 0 <= aux_hard78 <= 1
 0 <= aux_hard79 <= 1
 0 <= aux_hard80 <= 1
 0 <= aux_hard81 <= 1
 0 <= aux_hard82 <= 1
 0 <= aux_hard83 <= 1
 0 <= aux_hard84 <= 1
 0 <= aux_hard85 <= 1
 0 <= aux_hard86 <= 1
 0 <= aux_hard87 <= 1
 0 <= aux_hard88 <= 1
 0 <= aux_hard89 <= 1
 0 <= aux_hard90 <= 1
 0 <= aux_hard91 <= 1
 0 <= aux_hard92 <= 1
 0 <= aux_hard93 <= 1
 0 <= aux_hard94 <= 1
 0 <= aux_hard95 <= 1
 0 <= aux_hard96 <= 1
 0 <= aux_hard97 <= 1
 0 <= aux_hard98 <= 1
 0 <= aux_hard99 <= 1
 0 <= aux_hard100 <= 1

Binaries
 vm1 vm2 vm3 vm4 vm5 C1_VM1 C1_VM2 C1_VM3 C1_VM4 C1_VM5 C2_VM1 C2_VM2 C2_VM3
 C2_VM4 C2_VM5 C3_VM1 C3_VM2 C3_VM3 C3_VM4 C3_VM5 C4_VM1 C4_VM2 C4_VM3 C4_VM4
 C4_VM5 C5_VM1 C5_VM2 C5_VM3 C5_VM4 C5_VM5 lex_VM3_comp0 lex_VM3_comp1
 lex_VM3_comp2 _bool#1 _and60 lex_VM3_comp3 _bool#2 _and64 lex_VM3_comp4 _bool#3
 _and68 aux_hard1 aux_hard2 aux_hard3 aux_hard4 aux_hard5 aux_hard6 aux_hard7
 aux_hard8 aux_hard9 aux_hard10 aux_hard11 aux_hard12 aux_hard13 aux_hard14
 aux_hard15 aux_hard16 aux_hard17 aux_hard18 aux_hard19 aux_hard20 aux_hard21
 aux_hard22 aux_hard23 aux_hard24 aux_hard25 aux_hard26 aux_hard27 aux_hard28
 aux_hard29 aux_hard30 aux_hard31 aux_hard32 aux_hard33 aux_hard34 aux_hard35
 aux_hard36 aux_hard37 aux_hard38 aux_hard39 aux_hard40 aux_hard41 aux_hard42
 aux_hard43 aux_hard44 aux_hard45 aux_hard46 aux_hard47 aux_hard48 aux_hard49
 aux_hard50 aux_hard51 aux_hard52 aux_hard53 aux_hard54 aux_hard55 aux_hard56
 aux_hard57 aux_hard58 aux_hard59 aux_hard60 aux_hard61 aux_hard62 aux_hard63
 aux_hard64 aux_hard65 aux_hard66 aux_hard67 aux_hard68 aux_hard69 aux_hard70
 aux_hard71 aux_hard72 aux_hard73 aux_hard74 aux_hard75 aux_hard76 aux_hard77
 aux_hard78 aux_hard79 aux_hard80 aux_hard81 aux_hard82 aux_hard83 aux_hard84
 aux_hard85 aux_hard86 aux_hard87 aux_hard88 aux_hard89 aux_hard90 aux_hard91
 aux_hard92 aux_hard93 aux_hard94 aux_hard95 aux_hard96 aux_hard97 aux_hard98
 aux_hard99 aux_hard100

Generals
 vmType1 vmType2 vmType3 vmType4 vmType5 ProcProv1 ProcProv2 ProcProv3 ProcProv4
 ProcProv5 MemProv1 MemProv2 MemProv3 MemProv4 MemProv5 StorageProv1
 StorageProv2 StorageProv3 StorageProv4 StorageProv5 PriceProv1 PriceProv2
 PriceProv3 PriceProv4 PriceProv5
End
